\ENCODING=ISO-8859-1
\Problem name: IloCplex

Minimize
 obj: 0.62666604 x_0_8_11 + 0.3999996 x_0_8_5 + 0.19666647 x_0_8_7
      + 0.47666619 x_0_8_9 + 0.36333297 x_0_8_10 + 0.42333291 x_0_0_9
      + 0.11333322 x_0_0_1 + 0.81999918 x_0_0_2 + 0.80333253 x_0_0_3
      + 0.55999944 x_0_0_4 + 0.78666588 x_0_0_5 + 0.41999958 x_0_0_6
      + 0.76333257 x_0_0_7 + 0.62666604 x_0_0_8 + 0.51333282 x_0_0_10
      + 0.6999993 x_0_1_3 + 0.11333322 x_0_1_11 + 0.86333247 x_0_1_2
      + 0.55666611 x_0_1_4 + 0.48333285 x_0_1_6 + 1.44666522 x_0_2_3
      + 0.81999918 x_0_2_11 + 0.86333247 x_0_2_1 + 0.40333293 x_0_2_4
      + 0.41666625 x_0_2_6 + 0.80333253 x_0_3_11 + 0.6999993 x_0_3_1
      + 1.44666522 x_0_3_2 + 1.05333228 x_0_3_4 + 1.14333219 x_0_3_6
      + 1.05333228 x_0_4_3 + 0.55999944 x_0_4_11 + 0.55666611 x_0_4_1
      + 0.40333293 x_0_4_2 + 0.333333 x_0_4_6 + 0.78666588 x_0_5_11
      + 0.25333308 x_0_5_7 + 0.3999996 x_0_5_8 + 0.41333292 x_0_5_9
      + 0.73999926 x_0_5_10 + 1.14333219 x_0_6_3 + 0.41999958 x_0_6_11
      + 0.48333285 x_0_6_1 + 0.41666625 x_0_6_2 + 0.333333 x_0_6_4
      + 0.76333257 x_0_7_11 + 0.25333308 x_0_7_5 + 0.19666647 x_0_7_8
      + 0.50333283 x_0_7_9 + 0.55999944 x_0_7_10 + 0.42333291 x_0_9_11
      + 0.41333292 x_0_9_5 + 0.50333283 x_0_9_7 + 0.47666619 x_0_9_8
      + 0.6333327 x_0_9_10 + 0.51333282 x_0_10_11 + 0.73999926 x_0_10_5
      + 0.55999944 x_0_10_7 + 0.36333297 x_0_10_8 + 0.6333327 x_0_10_9
      + 0.62666604 x_1_8_11 + 0.3999996 x_1_8_5 + 0.19666647 x_1_8_7
      + 0.47666619 x_1_8_9 + 0.36333297 x_1_8_10 + 0.42333291 x_1_0_9
      + 0.11333322 x_1_0_1 + 0.81999918 x_1_0_2 + 0.80333253 x_1_0_3
      + 0.55999944 x_1_0_4 + 0.78666588 x_1_0_5 + 0.41999958 x_1_0_6
      + 0.76333257 x_1_0_7 + 0.62666604 x_1_0_8 + 0.51333282 x_1_0_10
      + 0.6999993 x_1_1_3 + 0.11333322 x_1_1_11 + 0.86333247 x_1_1_2
      + 0.55666611 x_1_1_4 + 0.48333285 x_1_1_6 + 1.44666522 x_1_2_3
      + 0.81999918 x_1_2_11 + 0.86333247 x_1_2_1 + 0.40333293 x_1_2_4
      + 0.41666625 x_1_2_6 + 0.80333253 x_1_3_11 + 0.6999993 x_1_3_1
      + 1.44666522 x_1_3_2 + 1.05333228 x_1_3_4 + 1.14333219 x_1_3_6
      + 1.05333228 x_1_4_3 + 0.55999944 x_1_4_11 + 0.55666611 x_1_4_1
      + 0.40333293 x_1_4_2 + 0.333333 x_1_4_6 + 0.78666588 x_1_5_11
      + 0.25333308 x_1_5_7 + 0.3999996 x_1_5_8 + 0.41333292 x_1_5_9
      + 0.73999926 x_1_5_10 + 1.14333219 x_1_6_3 + 0.41999958 x_1_6_11
      + 0.48333285 x_1_6_1 + 0.41666625 x_1_6_2 + 0.333333 x_1_6_4
      + 0.76333257 x_1_7_11 + 0.25333308 x_1_7_5 + 0.19666647 x_1_7_8
      + 0.50333283 x_1_7_9 + 0.55999944 x_1_7_10 + 0.42333291 x_1_9_11
      + 0.41333292 x_1_9_5 + 0.50333283 x_1_9_7 + 0.47666619 x_1_9_8
      + 0.6333327 x_1_9_10 + 0.51333282 x_1_10_11 + 0.73999926 x_1_10_5
      + 0.55999944 x_1_10_7 + 0.36333297 x_1_10_8 + 0.6333327 x_1_10_9
      + 0.62666604 x_2_8_11 + 0.3999996 x_2_8_5 + 0.19666647 x_2_8_7
      + 0.36333297 x_2_8_10 + 0.42333291 x_2_0_9 + 0.11333322 x_2_0_1
      + 0.81999918 x_2_0_2 + 0.80333253 x_2_0_3 + 0.55999944 x_2_0_4
      + 0.78666588 x_2_0_5 + 0.41999958 x_2_0_6 + 0.76333257 x_2_0_7
      + 0.62666604 x_2_0_8 + 0.51333282 x_2_0_10 + 0.11333322 x_2_1_11
      + 1.44666522 x_2_2_3 + 0.81999918 x_2_2_11 + 0.40333293 x_2_2_4
      + 0.41666625 x_2_2_6 + 1.20999879 x_2_2_9 + 0.80333253 x_2_3_11
      + 1.44666522 x_2_3_2 + 1.05333228 x_2_3_4 + 1.14333219 x_2_3_6
      + 0.46999953 x_2_3_9 + 1.05333228 x_2_4_3 + 0.55999944 x_2_4_11
      + 0.40333293 x_2_4_2 + 0.333333 x_2_4_6 + 0.87999912 x_2_4_9
      + 0.78666588 x_2_5_11 + 0.25333308 x_2_5_7 + 0.3999996 x_2_5_8
      + 0.73999926 x_2_5_10 + 1.14333219 x_2_6_3 + 0.41999958 x_2_6_11
      + 0.41666625 x_2_6_2 + 0.333333 x_2_6_4 + 0.82999917 x_2_6_9
      + 0.76333257 x_2_7_11 + 0.25333308 x_2_7_5 + 0.19666647 x_2_7_8
      + 0.55999944 x_2_7_10 + 0.46999953 x_2_9_3 + 0.42333291 x_2_9_11
      + 1.20999879 x_2_9_2 + 0.87999912 x_2_9_4 + 0.82999917 x_2_9_6
      + 0.51333282 x_2_10_11 + 0.73999926 x_2_10_5 + 0.55999944 x_2_10_7
      + 0.36333297 x_2_10_8
Subject To
 c1:   x_0_0_9 + x_0_0_1 + x_0_0_2 + x_0_0_3 + x_0_0_4 + x_0_0_5 + x_0_0_6
       + x_0_0_7 + x_0_0_8 + x_0_0_10  = 2
 c2:   x_1_0_9 + x_1_0_1 + x_1_0_2 + x_1_0_3 + x_1_0_4 + x_1_0_5 + x_1_0_6
       + x_1_0_7 + x_1_0_8 + x_1_0_10  = 2
 c3:   x_2_0_9 + x_2_0_1 + x_2_0_2 + x_2_0_3 + x_2_0_4 + x_2_0_5 + x_2_0_6
       + x_2_0_7 + x_2_0_8 + x_2_0_10  = 3
 c4:   x_0_8_11 + x_0_1_11 + x_0_2_11 + x_0_3_11 + x_0_4_11 + x_0_5_11
       + x_0_6_11 + x_0_7_11 + x_0_9_11 + x_0_10_11  = 2
 c5:   x_1_8_11 + x_1_1_11 + x_1_2_11 + x_1_3_11 + x_1_4_11 + x_1_5_11
       + x_1_6_11 + x_1_7_11 + x_1_9_11 + x_1_10_11  = 2
 c6:   x_2_8_11 + x_2_1_11 + x_2_2_11 + x_2_3_11 + x_2_4_11 + x_2_5_11
       + x_2_6_11 + x_2_7_11 + x_2_9_11 + x_2_10_11  = 3
 c7:   x_0_1_3 + x_0_1_11 + x_0_1_2 + x_0_1_4 + x_0_1_6  = 1
 c8:   x_0_0_1 + x_0_2_1 + x_0_3_1 + x_0_4_1 + x_0_6_1  = 1
 c9:   x_0_2_3 + x_0_2_11 + x_0_2_1 + x_0_2_4 + x_0_2_6  = 1
 c10:  x_0_0_2 + x_0_1_2 + x_0_3_2 + x_0_4_2 + x_0_6_2  = 1
 c11:  x_0_3_11 + x_0_3_1 + x_0_3_2 + x_0_3_4 + x_0_3_6  = 1
 c12:  x_0_0_3 + x_0_1_3 + x_0_2_3 + x_0_4_3 + x_0_6_3  = 1
 c13:  x_0_4_3 + x_0_4_11 + x_0_4_1 + x_0_4_2 + x_0_4_6  = 1
 c14:  x_0_0_4 + x_0_1_4 + x_0_2_4 + x_0_3_4 + x_0_6_4  = 1
 c15:  x_0_5_11 + x_0_5_7 + x_0_5_8 + x_0_5_9 + x_0_5_10  = 1
 c16:  x_0_8_5 + x_0_0_5 + x_0_7_5 + x_0_9_5 + x_0_10_5  = 1
 c17:  x_0_6_3 + x_0_6_11 + x_0_6_1 + x_0_6_2 + x_0_6_4  = 1
 c18:  x_0_0_6 + x_0_1_6 + x_0_2_6 + x_0_3_6 + x_0_4_6  = 1
 c19:  x_0_7_11 + x_0_7_5 + x_0_7_8 + x_0_7_9 + x_0_7_10  = 1
 c20:  x_0_8_7 + x_0_0_7 + x_0_5_7 + x_0_9_7 + x_0_10_7  = 1
 c21:  x_0_8_11 + x_0_8_5 + x_0_8_7 + x_0_8_9 + x_0_8_10  = 1
 c22:  x_0_0_8 + x_0_5_8 + x_0_7_8 + x_0_9_8 + x_0_10_8  = 1
 c23:  x_0_9_11 + x_0_9_5 + x_0_9_7 + x_0_9_8 + x_0_9_10  = 1
 c24:  x_0_8_9 + x_0_0_9 + x_0_5_9 + x_0_7_9 + x_0_10_9  = 1
 c25:  x_0_10_11 + x_0_10_5 + x_0_10_7 + x_0_10_8 + x_0_10_9  = 1
 c26:  x_0_8_10 + x_0_0_10 + x_0_5_10 + x_0_7_10 + x_0_9_10  = 1
 c27:  x_1_1_3 + x_1_1_11 + x_1_1_2 + x_1_1_4 + x_1_1_6  = 1
 c28:  x_1_0_1 + x_1_2_1 + x_1_3_1 + x_1_4_1 + x_1_6_1  = 1
 c29:  x_1_2_3 + x_1_2_11 + x_1_2_1 + x_1_2_4 + x_1_2_6  = 1
 c30:  x_1_0_2 + x_1_1_2 + x_1_3_2 + x_1_4_2 + x_1_6_2  = 1
 c31:  x_1_3_11 + x_1_3_1 + x_1_3_2 + x_1_3_4 + x_1_3_6  = 1
 c32:  x_1_0_3 + x_1_1_3 + x_1_2_3 + x_1_4_3 + x_1_6_3  = 1
 c33:  x_1_4_3 + x_1_4_11 + x_1_4_1 + x_1_4_2 + x_1_4_6  = 1
 c34:  x_1_0_4 + x_1_1_4 + x_1_2_4 + x_1_3_4 + x_1_6_4  = 1
 c35:  x_1_5_11 + x_1_5_7 + x_1_5_8 + x_1_5_9 + x_1_5_10  = 1
 c36:  x_1_8_5 + x_1_0_5 + x_1_7_5 + x_1_9_5 + x_1_10_5  = 1
 c37:  x_1_6_3 + x_1_6_11 + x_1_6_1 + x_1_6_2 + x_1_6_4  = 1
 c38:  x_1_0_6 + x_1_1_6 + x_1_2_6 + x_1_3_6 + x_1_4_6  = 1
 c39:  x_1_7_11 + x_1_7_5 + x_1_7_8 + x_1_7_9 + x_1_7_10  = 1
 c40:  x_1_8_7 + x_1_0_7 + x_1_5_7 + x_1_9_7 + x_1_10_7  = 1
 c41:  x_1_8_11 + x_1_8_5 + x_1_8_7 + x_1_8_9 + x_1_8_10  = 1
 c42:  x_1_0_8 + x_1_5_8 + x_1_7_8 + x_1_9_8 + x_1_10_8  = 1
 c43:  x_1_9_11 + x_1_9_5 + x_1_9_7 + x_1_9_8 + x_1_9_10  = 1
 c44:  x_1_8_9 + x_1_0_9 + x_1_5_9 + x_1_7_9 + x_1_10_9  = 1
 c45:  x_1_10_11 + x_1_10_5 + x_1_10_7 + x_1_10_8 + x_1_10_9  = 1
 c46:  x_1_8_10 + x_1_0_10 + x_1_5_10 + x_1_7_10 + x_1_9_10  = 1
 c47:  x_2_1_11  = 1
 c48:  x_2_0_1  = 1
 c49:  x_2_2_3 + x_2_2_11 + x_2_2_4 + x_2_2_6 + x_2_2_9  = 1
 c50:  x_2_0_2 + x_2_3_2 + x_2_4_2 + x_2_6_2 + x_2_9_2  = 1
 c51:  x_2_3_11 + x_2_3_2 + x_2_3_4 + x_2_3_6 + x_2_3_9  = 1
 c52:  x_2_0_3 + x_2_2_3 + x_2_4_3 + x_2_6_3 + x_2_9_3  = 1
 c53:  x_2_4_3 + x_2_4_11 + x_2_4_2 + x_2_4_6 + x_2_4_9  = 1
 c54:  x_2_0_4 + x_2_2_4 + x_2_3_4 + x_2_6_4 + x_2_9_4  = 1
 c55:  x_2_5_11 + x_2_5_7 + x_2_5_8 + x_2_5_10  = 1
 c56:  x_2_8_5 + x_2_0_5 + x_2_7_5 + x_2_10_5  = 1
 c57:  x_2_6_3 + x_2_6_11 + x_2_6_2 + x_2_6_4 + x_2_6_9  = 1
 c58:  x_2_0_6 + x_2_2_6 + x_2_3_6 + x_2_4_6 + x_2_9_6  = 1
 c59:  x_2_7_11 + x_2_7_5 + x_2_7_8 + x_2_7_10  = 1
 c60:  x_2_8_7 + x_2_0_7 + x_2_5_7 + x_2_10_7  = 1
 c61:  x_2_8_11 + x_2_8_5 + x_2_8_7 + x_2_8_10  = 1
 c62:  x_2_0_8 + x_2_5_8 + x_2_7_8 + x_2_10_8  = 1
 c63:  x_2_9_3 + x_2_9_11 + x_2_9_2 + x_2_9_4 + x_2_9_6  = 1
 c64:  x_2_0_9 + x_2_2_9 + x_2_3_9 + x_2_4_9 + x_2_6_9  = 1
 c65:  x_2_10_11 + x_2_10_5 + x_2_10_7 + x_2_10_8  = 1
 c66:  x_2_8_10 + x_2_0_10 + x_2_5_10 + x_2_7_10  = 1
 c67:  23.27 x_0_0_9 + t_0_0 - t_0_9 <= 22
 c68:  22.34 x_0_0_1 + t_0_0 - t_0_1 <= 22
 c69:  24.46 x_0_0_2 + t_0_0 - t_0_2 <= 22
 c70:  24.41 x_0_0_3 + t_0_0 - t_0_3 <= 22
 c71:  23.68 x_0_0_4 + t_0_0 - t_0_4 <= 22
 c72:  24.36 x_0_0_5 + t_0_0 - t_0_5 <= 22
 c73:  23.26 x_0_0_6 + t_0_0 - t_0_6 <= 22
 c74:  24.29 x_0_0_7 + t_0_0 - t_0_7 <= 22
 c75:  23.88 x_0_0_8 + t_0_0 - t_0_8 <= 22
 c76:  23.54 x_0_0_10 + t_0_0 - t_0_10 <= 22
 c77:  24.1 x_0_1_3 + t_0_1 - t_0_3 <= 22
 c78:  22.34 x_0_1_11 + t_0_1 - t_0_11 <= 22
 c79:  24.59 x_0_1_2 + t_0_1 - t_0_2 <= 22
 c80:  23.67 x_0_1_4 + t_0_1 - t_0_4 <= 22
 c81:  23.45 x_0_1_6 + t_0_1 - t_0_6 <= 22
 c82:  26.34 x_0_2_3 + t_0_2 - t_0_3 <= 22
 c83:  24.46 x_0_2_11 + t_0_2 - t_0_11 <= 22
 c84:  24.59 x_0_2_1 - t_0_1 + t_0_2 <= 22
 c85:  23.21 x_0_2_4 + t_0_2 - t_0_4 <= 22
 c86:  23.25 x_0_2_6 + t_0_2 - t_0_6 <= 22
 c87:  24.41 x_0_3_11 + t_0_3 - t_0_11 <= 22
 c88:  24.1 x_0_3_1 - t_0_1 + t_0_3 <= 22
 c89:  26.34 x_0_3_2 - t_0_2 + t_0_3 <= 22
 c90:  25.16 x_0_3_4 + t_0_3 - t_0_4 <= 22
 c91:  25.43 x_0_3_6 + t_0_3 - t_0_6 <= 22
 c92:  25.16 x_0_4_3 - t_0_3 + t_0_4 <= 22
 c93:  23.68 x_0_4_11 + t_0_4 - t_0_11 <= 22
 c94:  23.67 x_0_4_1 - t_0_1 + t_0_4 <= 22
 c95:  23.21 x_0_4_2 - t_0_2 + t_0_4 <= 22
 c96:  23 x_0_4_6 + t_0_4 - t_0_6 <= 22
 c97:  24.36 x_0_5_11 + t_0_5 - t_0_11 <= 22
 c98:  22.76 x_0_5_7 + t_0_5 - t_0_7 <= 22
 c99:  23.2 x_0_5_8 + t_0_5 - t_0_8 <= 22
 c100: 23.24 x_0_5_9 - t_0_9 + t_0_5 <= 22
 c101: 24.22 x_0_5_10 + t_0_5 - t_0_10 <= 22
 c102: 25.43 x_0_6_3 - t_0_3 + t_0_6 <= 22
 c103: 23.26 x_0_6_11 + t_0_6 - t_0_11 <= 22
 c104: 23.45 x_0_6_1 - t_0_1 + t_0_6 <= 22
 c105: 23.25 x_0_6_2 - t_0_2 + t_0_6 <= 22
 c106: 23 x_0_6_4 - t_0_4 + t_0_6 <= 22
 c107: 24.29 x_0_7_11 + t_0_7 - t_0_11 <= 22
 c108: 22.76 x_0_7_5 - t_0_5 + t_0_7 <= 22
 c109: 22.59 x_0_7_8 + t_0_7 - t_0_8 <= 22
 c110: 23.51 x_0_7_9 - t_0_9 + t_0_7 <= 22
 c111: 23.68 x_0_7_10 + t_0_7 - t_0_10 <= 22
 c112: 23.88 x_0_8_11 + t_0_8 - t_0_11 <= 22
 c113: 23.2 x_0_8_5 - t_0_5 + t_0_8 <= 22
 c114: 22.59 x_0_8_7 - t_0_7 + t_0_8 <= 22
 c115: 23.43 x_0_8_9 - t_0_9 + t_0_8 <= 22
 c116: 23.09 x_0_8_10 + t_0_8 - t_0_10 <= 22
 c117: 23.27 x_0_9_11 + t_0_9 - t_0_11 <= 22
 c118: 23.24 x_0_9_5 + t_0_9 - t_0_5 <= 22
 c119: 23.51 x_0_9_7 + t_0_9 - t_0_7 <= 22
 c120: 23.43 x_0_9_8 + t_0_9 - t_0_8 <= 22
 c121: 23.9 x_0_9_10 + t_0_9 - t_0_10 <= 22
 c122: 23.54 x_0_10_11 + t_0_10 - t_0_11 <= 22
 c123: 24.22 x_0_10_5 - t_0_5 + t_0_10 <= 22
 c124: 23.68 x_0_10_7 - t_0_7 + t_0_10 <= 22
 c125: 23.09 x_0_10_8 - t_0_8 + t_0_10 <= 22
 c126: 23.9 x_0_10_9 - t_0_9 + t_0_10 <= 22
 c127: 23.27 x_1_0_9 + t_1_0 - t_1_9 <= 22
 c128: 22.34 x_1_0_1 + t_1_0 - t_1_1 <= 22
 c129: 24.46 x_1_0_2 + t_1_0 - t_1_2 <= 22
 c130: 24.41 x_1_0_3 + t_1_0 - t_1_3 <= 22
 c131: 23.68 x_1_0_4 + t_1_0 - t_1_4 <= 22
 c132: 24.36 x_1_0_5 + t_1_0 - t_1_5 <= 22
 c133: 23.26 x_1_0_6 + t_1_0 - t_1_6 <= 22
 c134: 24.29 x_1_0_7 + t_1_0 - t_1_7 <= 22
 c135: 23.88 x_1_0_8 + t_1_0 - t_1_8 <= 22
 c136: 23.54 x_1_0_10 + t_1_0 - t_1_10 <= 22
 c137: 24.1 x_1_1_3 + t_1_1 - t_1_3 <= 22
 c138: 22.34 x_1_1_11 + t_1_1 - t_1_11 <= 22
 c139: 24.59 x_1_1_2 + t_1_1 - t_1_2 <= 22
 c140: 23.67 x_1_1_4 + t_1_1 - t_1_4 <= 22
 c141: 23.45 x_1_1_6 + t_1_1 - t_1_6 <= 22
 c142: 26.34 x_1_2_3 + t_1_2 - t_1_3 <= 22
 c143: 24.46 x_1_2_11 + t_1_2 - t_1_11 <= 22
 c144: 24.59 x_1_2_1 - t_1_1 + t_1_2 <= 22
 c145: 23.21 x_1_2_4 + t_1_2 - t_1_4 <= 22
 c146: 23.25 x_1_2_6 + t_1_2 - t_1_6 <= 22
 c147: 24.41 x_1_3_11 + t_1_3 - t_1_11 <= 22
 c148: 24.1 x_1_3_1 - t_1_1 + t_1_3 <= 22
 c149: 26.34 x_1_3_2 - t_1_2 + t_1_3 <= 22
 c150: 25.16 x_1_3_4 + t_1_3 - t_1_4 <= 22
 c151: 25.43 x_1_3_6 + t_1_3 - t_1_6 <= 22
 c152: 25.16 x_1_4_3 - t_1_3 + t_1_4 <= 22
 c153: 23.68 x_1_4_11 + t_1_4 - t_1_11 <= 22
 c154: 23.67 x_1_4_1 - t_1_1 + t_1_4 <= 22
 c155: 23.21 x_1_4_2 - t_1_2 + t_1_4 <= 22
 c156: 23 x_1_4_6 + t_1_4 - t_1_6 <= 22
 c157: 24.36 x_1_5_11 + t_1_5 - t_1_11 <= 22
 c158: 22.76 x_1_5_7 + t_1_5 - t_1_7 <= 22
 c159: 23.2 x_1_5_8 + t_1_5 - t_1_8 <= 22
 c160: 23.24 x_1_5_9 - t_1_9 + t_1_5 <= 22
 c161: 24.22 x_1_5_10 + t_1_5 - t_1_10 <= 22
 c162: 25.43 x_1_6_3 - t_1_3 + t_1_6 <= 22
 c163: 23.26 x_1_6_11 + t_1_6 - t_1_11 <= 22
 c164: 23.45 x_1_6_1 - t_1_1 + t_1_6 <= 22
 c165: 23.25 x_1_6_2 - t_1_2 + t_1_6 <= 22
 c166: 23 x_1_6_4 - t_1_4 + t_1_6 <= 22
 c167: 24.29 x_1_7_11 + t_1_7 - t_1_11 <= 22
 c168: 22.76 x_1_7_5 - t_1_5 + t_1_7 <= 22
 c169: 22.59 x_1_7_8 + t_1_7 - t_1_8 <= 22
 c170: 23.51 x_1_7_9 - t_1_9 + t_1_7 <= 22
 c171: 23.68 x_1_7_10 + t_1_7 - t_1_10 <= 22
 c172: 23.88 x_1_8_11 + t_1_8 - t_1_11 <= 22
 c173: 23.2 x_1_8_5 - t_1_5 + t_1_8 <= 22
 c174: 22.59 x_1_8_7 - t_1_7 + t_1_8 <= 22
 c175: 23.43 x_1_8_9 - t_1_9 + t_1_8 <= 22
 c176: 23.09 x_1_8_10 + t_1_8 - t_1_10 <= 22
 c177: 23.27 x_1_9_11 + t_1_9 - t_1_11 <= 22
 c178: 23.24 x_1_9_5 + t_1_9 - t_1_5 <= 22
 c179: 23.51 x_1_9_7 + t_1_9 - t_1_7 <= 22
 c180: 23.43 x_1_9_8 + t_1_9 - t_1_8 <= 22
 c181: 23.9 x_1_9_10 + t_1_9 - t_1_10 <= 22
 c182: 23.54 x_1_10_11 + t_1_10 - t_1_11 <= 22
 c183: 24.22 x_1_10_5 - t_1_5 + t_1_10 <= 22
 c184: 23.68 x_1_10_7 - t_1_7 + t_1_10 <= 22
 c185: 23.09 x_1_10_8 - t_1_8 + t_1_10 <= 22
 c186: 23.9 x_1_10_9 - t_1_9 + t_1_10 <= 22
 c187: 23.27 x_2_0_9 + t_2_0 - t_2_9 <= 22
 c188: 22.34 x_2_0_1 + t_2_0 - t_2_1 <= 22
 c189: 24.46 x_2_0_2 + t_2_0 - t_2_2 <= 22
 c190: 24.41 x_2_0_3 + t_2_0 - t_2_3 <= 22
 c191: 23.68 x_2_0_4 + t_2_0 - t_2_4 <= 22
 c192: 24.36 x_2_0_5 + t_2_0 - t_2_5 <= 22
 c193: 23.26 x_2_0_6 + t_2_0 - t_2_6 <= 22
 c194: 24.29 x_2_0_7 + t_2_0 - t_2_7 <= 22
 c195: 23.88 x_2_0_8 + t_2_0 - t_2_8 <= 22
 c196: 23.54 x_2_0_10 + t_2_0 - t_2_10 <= 22
 c197: 22.34 x_2_1_11 + t_2_1 - t_2_11 <= 22
 c198: 26.34 x_2_2_3 + t_2_2 - t_2_3 <= 22
 c199: 24.46 x_2_2_11 + t_2_2 - t_2_11 <= 22
 c200: 23.21 x_2_2_4 + t_2_2 - t_2_4 <= 22
 c201: 23.25 x_2_2_6 + t_2_2 - t_2_6 <= 22
 c202: 25.63 x_2_2_9 - t_2_9 + t_2_2 <= 22
 c203: 24.41 x_2_3_11 + t_2_3 - t_2_11 <= 22
 c204: 26.34 x_2_3_2 - t_2_2 + t_2_3 <= 22
 c205: 25.16 x_2_3_4 + t_2_3 - t_2_4 <= 22
 c206: 25.43 x_2_3_6 + t_2_3 - t_2_6 <= 22
 c207: 23.41 x_2_3_9 - t_2_9 + t_2_3 <= 22
 c208: 25.16 x_2_4_3 - t_2_3 + t_2_4 <= 22
 c209: 23.68 x_2_4_11 + t_2_4 - t_2_11 <= 22
 c210: 23.21 x_2_4_2 - t_2_2 + t_2_4 <= 22
 c211: 23 x_2_4_6 + t_2_4 - t_2_6 <= 22
 c212: 24.64 x_2_4_9 - t_2_9 + t_2_4 <= 22
 c213: 24.36 x_2_5_11 + t_2_5 - t_2_11 <= 22
 c214: 22.76 x_2_5_7 + t_2_5 - t_2_7 <= 22
 c215: 23.2 x_2_5_8 + t_2_5 - t_2_8 <= 22
 c216: 24.22 x_2_5_10 + t_2_5 - t_2_10 <= 22
 c217: 25.43 x_2_6_3 - t_2_3 + t_2_6 <= 22
 c218: 23.26 x_2_6_11 + t_2_6 - t_2_11 <= 22
 c219: 23.25 x_2_6_2 - t_2_2 + t_2_6 <= 22
 c220: 23 x_2_6_4 - t_2_4 + t_2_6 <= 22
 c221: 24.49 x_2_6_9 - t_2_9 + t_2_6 <= 22
 c222: 24.29 x_2_7_11 + t_2_7 - t_2_11 <= 22
 c223: 22.76 x_2_7_5 - t_2_5 + t_2_7 <= 22
 c224: 22.59 x_2_7_8 + t_2_7 - t_2_8 <= 22
 c225: 23.68 x_2_7_10 + t_2_7 - t_2_10 <= 22
 c226: 23.88 x_2_8_11 + t_2_8 - t_2_11 <= 22
 c227: 23.2 x_2_8_5 - t_2_5 + t_2_8 <= 22
 c228: 22.59 x_2_8_7 - t_2_7 + t_2_8 <= 22
 c229: 23.09 x_2_8_10 + t_2_8 - t_2_10 <= 22
 c230: 23.41 x_2_9_3 + t_2_9 - t_2_3 <= 22
 c231: 23.27 x_2_9_11 + t_2_9 - t_2_11 <= 22
 c232: 25.63 x_2_9_2 + t_2_9 - t_2_2 <= 22
 c233: 24.64 x_2_9_4 + t_2_9 - t_2_4 <= 22
 c234: 24.49 x_2_9_6 + t_2_9 - t_2_6 <= 22
 c235: 23.54 x_2_10_11 + t_2_10 - t_2_11 <= 22
 c236: 24.22 x_2_10_5 - t_2_5 + t_2_10 <= 22
 c237: 23.68 x_2_10_7 - t_2_7 + t_2_10 <= 22
 c238: 23.09 x_2_10_8 - t_2_8 + t_2_10 <= 22
 c239: - t_0_1 + y_1 <= 0
 c240: t_0_1 - y_1 <= 2
 c241: - t_0_2 + y_2 <= 0
 c242: t_0_2 - y_2 <= 2
 c243: - t_0_3 + y_3 <= 0
 c244: t_0_3 - y_3 <= 2
 c245: - t_0_4 + y_4 <= 0
 c246: t_0_4 - y_4 <= 2
 c247: - t_0_5 + y_5 <= 0
 c248: t_0_5 - y_5 <= 2
 c249: - t_0_6 + y_6 <= 0
 c250: t_0_6 - y_6 <= 2
 c251: - t_0_7 + y_7 <= 0
 c252: t_0_7 - y_7 <= 2
 c253: - t_0_8 + y_8 <= 0
 c254: t_0_8 - y_8 <= 2
 c255: - t_0_9 + y_9 <= 0
 c256: t_0_9 - y_9 <= 2
 c257: - t_0_10 + y_10 <= 0
 c258: t_0_10 - y_10 <= 2
 c259: - t_1_1 + y_1 <= 0
 c260: t_1_1 - y_1 <= 2
 c261: - t_1_2 + y_2 <= 0
 c262: t_1_2 - y_2 <= 2
 c263: - t_1_3 + y_3 <= 0
 c264: t_1_3 - y_3 <= 2
 c265: - t_1_4 + y_4 <= 0
 c266: t_1_4 - y_4 <= 2
 c267: - t_1_5 + y_5 <= 0
 c268: t_1_5 - y_5 <= 2
 c269: - t_1_6 + y_6 <= 0
 c270: t_1_6 - y_6 <= 2
 c271: - t_1_7 + y_7 <= 0
 c272: t_1_7 - y_7 <= 2
 c273: - t_1_8 + y_8 <= 0
 c274: t_1_8 - y_8 <= 2
 c275: - t_1_9 + y_9 <= 0
 c276: t_1_9 - y_9 <= 2
 c277: - t_1_10 + y_10 <= 0
 c278: t_1_10 - y_10 <= 2
 c279: - t_2_1 + y_1 <= 0
 c280: t_2_1 - y_1 <= 2
 c281: - t_2_2 + y_2 <= 0
 c282: t_2_2 - y_2 <= 2
 c283: - t_2_3 + y_3 <= 0
 c284: t_2_3 - y_3 <= 2
 c285: - t_2_4 + y_4 <= 0
 c286: t_2_4 - y_4 <= 2
 c287: - t_2_5 + y_5 <= 0
 c288: t_2_5 - y_5 <= 2
 c289: - t_2_6 + y_6 <= 0
 c290: t_2_6 - y_6 <= 2
 c291: - t_2_7 + y_7 <= 0
 c292: t_2_7 - y_7 <= 2
 c293: - t_2_8 + y_8 <= 0
 c294: t_2_8 - y_8 <= 2
 c295: - t_2_9 + y_9 <= 0
 c296: t_2_9 - y_9 <= 2
 c297: - t_2_10 + y_10 <= 0
 c298: t_2_10 - y_10 <= 2
Bounds
 0 <= x_0_8_11 <= 1
 0 <= x_0_8_5 <= 1
 0 <= x_0_8_7 <= 1
 0 <= x_0_8_9 <= 1
 0 <= x_0_8_10 <= 1
 0 <= x_0_0_9 <= 1
 0 <= x_0_0_1 <= 1
 0 <= x_0_0_2 <= 1
 0 <= x_0_0_3 <= 1
 0 <= x_0_0_4 <= 1
 0 <= x_0_0_5 <= 1
 0 <= x_0_0_6 <= 1
 0 <= x_0_0_7 <= 1
 0 <= x_0_0_8 <= 1
 0 <= x_0_0_10 <= 1
 0 <= x_0_1_3 <= 1
 0 <= x_0_1_11 <= 1
 0 <= x_0_1_2 <= 1
 0 <= x_0_1_4 <= 1
 0 <= x_0_1_6 <= 1
 0 <= x_0_2_3 <= 1
 0 <= x_0_2_11 <= 1
 0 <= x_0_2_1 <= 1
 0 <= x_0_2_4 <= 1
 0 <= x_0_2_6 <= 1
 0 <= x_0_3_11 <= 1
 0 <= x_0_3_1 <= 1
 0 <= x_0_3_2 <= 1
 0 <= x_0_3_4 <= 1
 0 <= x_0_3_6 <= 1
 0 <= x_0_4_3 <= 1
 0 <= x_0_4_11 <= 1
 0 <= x_0_4_1 <= 1
 0 <= x_0_4_2 <= 1
 0 <= x_0_4_6 <= 1
 0 <= x_0_5_11 <= 1
 0 <= x_0_5_7 <= 1
 0 <= x_0_5_8 <= 1
 0 <= x_0_5_9 <= 1
 0 <= x_0_5_10 <= 1
 0 <= x_0_6_3 <= 1
 0 <= x_0_6_11 <= 1
 0 <= x_0_6_1 <= 1
 0 <= x_0_6_2 <= 1
 0 <= x_0_6_4 <= 1
 0 <= x_0_7_11 <= 1
 0 <= x_0_7_5 <= 1
 0 <= x_0_7_8 <= 1
 0 <= x_0_7_9 <= 1
 0 <= x_0_7_10 <= 1
 0 <= x_0_9_11 <= 1
 0 <= x_0_9_5 <= 1
 0 <= x_0_9_7 <= 1
 0 <= x_0_9_8 <= 1
 0 <= x_0_9_10 <= 1
 0 <= x_0_10_11 <= 1
 0 <= x_0_10_5 <= 1
 0 <= x_0_10_7 <= 1
 0 <= x_0_10_8 <= 1
 0 <= x_0_10_9 <= 1
 0 <= x_1_8_11 <= 1
 0 <= x_1_8_5 <= 1
 0 <= x_1_8_7 <= 1
 0 <= x_1_8_9 <= 1
 0 <= x_1_8_10 <= 1
 0 <= x_1_0_9 <= 1
 0 <= x_1_0_1 <= 1
 0 <= x_1_0_2 <= 1
 0 <= x_1_0_3 <= 1
 0 <= x_1_0_4 <= 1
 0 <= x_1_0_5 <= 1
 0 <= x_1_0_6 <= 1
 0 <= x_1_0_7 <= 1
 0 <= x_1_0_8 <= 1
 0 <= x_1_0_10 <= 1
 0 <= x_1_1_3 <= 1
 0 <= x_1_1_11 <= 1
 0 <= x_1_1_2 <= 1
 0 <= x_1_1_4 <= 1
 0 <= x_1_1_6 <= 1
 0 <= x_1_2_3 <= 1
 0 <= x_1_2_11 <= 1
 0 <= x_1_2_1 <= 1
 0 <= x_1_2_4 <= 1
 0 <= x_1_2_6 <= 1
 0 <= x_1_3_11 <= 1
 0 <= x_1_3_1 <= 1
 0 <= x_1_3_2 <= 1
 0 <= x_1_3_4 <= 1
 0 <= x_1_3_6 <= 1
 0 <= x_1_4_3 <= 1
 0 <= x_1_4_11 <= 1
 0 <= x_1_4_1 <= 1
 0 <= x_1_4_2 <= 1
 0 <= x_1_4_6 <= 1
 0 <= x_1_5_11 <= 1
 0 <= x_1_5_7 <= 1
 0 <= x_1_5_8 <= 1
 0 <= x_1_5_9 <= 1
 0 <= x_1_5_10 <= 1
 0 <= x_1_6_3 <= 1
 0 <= x_1_6_11 <= 1
 0 <= x_1_6_1 <= 1
 0 <= x_1_6_2 <= 1
 0 <= x_1_6_4 <= 1
 0 <= x_1_7_11 <= 1
 0 <= x_1_7_5 <= 1
 0 <= x_1_7_8 <= 1
 0 <= x_1_7_9 <= 1
 0 <= x_1_7_10 <= 1
 0 <= x_1_9_11 <= 1
 0 <= x_1_9_5 <= 1
 0 <= x_1_9_7 <= 1
 0 <= x_1_9_8 <= 1
 0 <= x_1_9_10 <= 1
 0 <= x_1_10_11 <= 1
 0 <= x_1_10_5 <= 1
 0 <= x_1_10_7 <= 1
 0 <= x_1_10_8 <= 1
 0 <= x_1_10_9 <= 1
 0 <= x_2_8_11 <= 1
 0 <= x_2_8_5 <= 1
 0 <= x_2_8_7 <= 1
 0 <= x_2_8_10 <= 1
 0 <= x_2_0_9 <= 1
 0 <= x_2_0_1 <= 1
 0 <= x_2_0_2 <= 1
 0 <= x_2_0_3 <= 1
 0 <= x_2_0_4 <= 1
 0 <= x_2_0_5 <= 1
 0 <= x_2_0_6 <= 1
 0 <= x_2_0_7 <= 1
 0 <= x_2_0_8 <= 1
 0 <= x_2_0_10 <= 1
 0 <= x_2_1_11 <= 1
 0 <= x_2_2_3 <= 1
 0 <= x_2_2_11 <= 1
 0 <= x_2_2_4 <= 1
 0 <= x_2_2_6 <= 1
 0 <= x_2_2_9 <= 1
 0 <= x_2_3_11 <= 1
 0 <= x_2_3_2 <= 1
 0 <= x_2_3_4 <= 1
 0 <= x_2_3_6 <= 1
 0 <= x_2_3_9 <= 1
 0 <= x_2_4_3 <= 1
 0 <= x_2_4_11 <= 1
 0 <= x_2_4_2 <= 1
 0 <= x_2_4_6 <= 1
 0 <= x_2_4_9 <= 1
 0 <= x_2_5_11 <= 1
 0 <= x_2_5_7 <= 1
 0 <= x_2_5_8 <= 1
 0 <= x_2_5_10 <= 1
 0 <= x_2_6_3 <= 1
 0 <= x_2_6_11 <= 1
 0 <= x_2_6_2 <= 1
 0 <= x_2_6_4 <= 1
 0 <= x_2_6_9 <= 1
 0 <= x_2_7_11 <= 1
 0 <= x_2_7_5 <= 1
 0 <= x_2_7_8 <= 1
 0 <= x_2_7_10 <= 1
 0 <= x_2_9_3 <= 1
 0 <= x_2_9_11 <= 1
 0 <= x_2_9_2 <= 1
 0 <= x_2_9_4 <= 1
 0 <= x_2_9_6 <= 1
 0 <= x_2_10_11 <= 1
 0 <= x_2_10_5 <= 1
 0 <= x_2_10_7 <= 1
 0 <= x_2_10_8 <= 1
 6 <= t_0_0 <= 22
 7 <= t_0_9 <= 21
 10 <= t_0_1 <= 16
 8 <= t_0_2 <= 18
 8 <= t_0_3 <= 18
 8 <= t_0_4 <= 18
 8 <= t_0_5 <= 18
 8 <= t_0_6 <= 18
 8 <= t_0_7 <= 18
 7 <= t_0_8 <= 21
 7 <= t_0_10 <= 21
 6 <= t_1_0 <= 22
 7 <= t_1_9 <= 21
 10 <= t_1_1 <= 16
 8 <= t_1_2 <= 18
 8 <= t_1_3 <= 18
 8 <= t_1_4 <= 18
 8 <= t_1_5 <= 18
 8 <= t_1_6 <= 18
 8 <= t_1_7 <= 18
 7 <= t_1_8 <= 21
 7 <= t_1_10 <= 21
 6 <= t_2_0 <= 22
 7 <= t_2_9 <= 21
 10 <= t_2_1 <= 16
 8 <= t_2_2 <= 18
 8 <= t_2_3 <= 18
 8 <= t_2_4 <= 18
 8 <= t_2_5 <= 18
 8 <= t_2_6 <= 18
 8 <= t_2_7 <= 18
 7 <= t_2_8 <= 21
 7 <= t_2_10 <= 21
 10 <= y_1 <= 16
 8 <= y_2 <= 18
 8 <= y_3 <= 18
 8 <= y_4 <= 18
 8 <= y_5 <= 18
 8 <= y_6 <= 18
 8 <= y_7 <= 18
 7 <= y_8 <= 21
 7 <= y_9 <= 21
 7 <= y_10 <= 21
Binaries
 x_0_8_11  x_0_8_5  x_0_8_7  x_0_8_9  x_0_8_10  x_0_0_9  x_0_0_1  x_0_0_2 
 x_0_0_3  x_0_0_4  x_0_0_5  x_0_0_6  x_0_0_7  x_0_0_8  x_0_0_10  x_0_1_3 
 x_0_1_11  x_0_1_2  x_0_1_4  x_0_1_6  x_0_2_3  x_0_2_11  x_0_2_1  x_0_2_4 
 x_0_2_6  x_0_3_11  x_0_3_1  x_0_3_2  x_0_3_4  x_0_3_6  x_0_4_3  x_0_4_11 
 x_0_4_1  x_0_4_2  x_0_4_6  x_0_5_11  x_0_5_7  x_0_5_8  x_0_5_9  x_0_5_10 
 x_0_6_3  x_0_6_11  x_0_6_1  x_0_6_2  x_0_6_4  x_0_7_11  x_0_7_5  x_0_7_8 
 x_0_7_9  x_0_7_10  x_0_9_11  x_0_9_5  x_0_9_7  x_0_9_8  x_0_9_10  x_0_10_11 
 x_0_10_5  x_0_10_7  x_0_10_8  x_0_10_9  x_1_8_11  x_1_8_5  x_1_8_7  x_1_8_9 
 x_1_8_10  x_1_0_9  x_1_0_1  x_1_0_2  x_1_0_3  x_1_0_4  x_1_0_5  x_1_0_6 
 x_1_0_7  x_1_0_8  x_1_0_10  x_1_1_3  x_1_1_11  x_1_1_2  x_1_1_4  x_1_1_6 
 x_1_2_3  x_1_2_11  x_1_2_1  x_1_2_4  x_1_2_6  x_1_3_11  x_1_3_1  x_1_3_2 
 x_1_3_4  x_1_3_6  x_1_4_3  x_1_4_11  x_1_4_1  x_1_4_2  x_1_4_6  x_1_5_11 
 x_1_5_7  x_1_5_8  x_1_5_9  x_1_5_10  x_1_6_3  x_1_6_11  x_1_6_1  x_1_6_2 
 x_1_6_4  x_1_7_11  x_1_7_5  x_1_7_8  x_1_7_9  x_1_7_10  x_1_9_11  x_1_9_5 
 x_1_9_7  x_1_9_8  x_1_9_10  x_1_10_11  x_1_10_5  x_1_10_7  x_1_10_8  x_1_10_9 
 x_2_8_11  x_2_8_5  x_2_8_7  x_2_8_10  x_2_0_9  x_2_0_1  x_2_0_2  x_2_0_3 
 x_2_0_4  x_2_0_5  x_2_0_6  x_2_0_7  x_2_0_8  x_2_0_10  x_2_1_11  x_2_2_3 
 x_2_2_11  x_2_2_4  x_2_2_6  x_2_2_9  x_2_3_11  x_2_3_2  x_2_3_4  x_2_3_6 
 x_2_3_9  x_2_4_3  x_2_4_11  x_2_4_2  x_2_4_6  x_2_4_9  x_2_5_11  x_2_5_7 
 x_2_5_8  x_2_5_10  x_2_6_3  x_2_6_11  x_2_6_2  x_2_6_4  x_2_6_9  x_2_7_11 
 x_2_7_5  x_2_7_8  x_2_7_10  x_2_9_3  x_2_9_11  x_2_9_2  x_2_9_4  x_2_9_6 
 x_2_10_11  x_2_10_5  x_2_10_7  x_2_10_8 
End
